p cnf 275 2555
1 2 3 4 5 6 7 8 9 10 11 0
12 13 14 15 16 17 18 19 20 21 22 0
23 24 25 26 27 28 29 30 31 32 33 0
34 35 36 37 38 39 40 41 42 43 44 0
45 46 47 48 49 50 51 52 53 54 55 0
56 57 58 59 60 61 62 63 64 65 66 0
67 68 69 70 71 72 73 74 75 76 77 0
78 79 80 81 82 83 84 85 86 87 88 0
89 90 91 92 93 94 95 96 97 98 99 0
100 101 102 103 104 105 106 107 108 109 110 0
111 112 113 114 115 116 117 118 119 120 121 0
122 123 124 125 126 127 128 129 130 131 132 0
133 134 135 136 137 138 139 140 141 142 143 0
144 145 146 147 148 149 150 151 152 153 154 0
155 156 157 158 159 160 161 162 163 164 165 0
166 167 168 169 170 171 172 173 174 175 176 0
177 178 179 180 181 182 183 184 185 186 187 0
188 189 190 191 192 193 194 195 196 197 198 0
199 200 201 202 203 204 205 206 207 208 209 0
210 211 212 213 214 215 216 217 218 219 220 0
221 222 223 224 225 226 227 228 229 230 231 0
232 233 234 235 236 237 238 239 240 241 242 0
243 244 245 246 247 248 249 250 251 252 253 0
254 255 256 257 258 259 260 261 262 263 264 0
265 266 267 268 269 270 271 272 273 274 275 0
-1 -2 0
-1 -3 0
-1 -4 0
-1 -5 0
-1 -6 0
-1 -7 0
-1 -8 0
-1 -9 0
-1 -10 0
-1 -11 0
-2 -3 0
-2 -4 0
-2 -5 0
-2 -6 0
-2 -7 0
-2 -8 0
-2 -9 0
-2 -10 0
-2 -11 0
-3 -4 0
-3 -5 0
-3 -6 0
-3 -7 0
-3 -8 0
-3 -9 0
-3 -10 0
-3 -11 0
-4 -5 0
-4 -6 0
-4 -7 0
-4 -8 0
-4 -9 0
-4 -10 0
-4 -11 0
-5 -6 0
-5 -7 0
-5 -8 0
-5 -9 0
-5 -10 0
-5 -11 0
-6 -7 0
-6 -8 0
-6 -9 0
-6 -10 0
-6 -11 0
-7 -8 0
-7 -9 0
-7 -10 0
-7 -11 0
-8 -9 0
-8 -10 0
-8 -11 0
-9 -10 0
-9 -11 0
-10 -11 0
-12 -13 0
-12 -14 0
-12 -15 0
-12 -16 0
-12 -17 0
-12 -18 0
-12 -19 0
-12 -20 0
-12 -21 0
-12 -22 0
-13 -14 0
-13 -15 0
-13 -16 0
-13 -17 0
-13 -18 0
-13 -19 0
-13 -20 0
-13 -21 0
-13 -22 0
-14 -15 0
-14 -16 0
-14 -17 0
-14 -18 0
-14 -19 0
-14 -20 0
-14 -21 0
-14 -22 0
-15 -16 0
-15 -17 0
-15 -18 0
-15 -19 0
-15 -20 0
-15 -21 0
-15 -22 0
-16 -17 0
-16 -18 0
-16 -19 0
-16 -20 0
-16 -21 0
-16 -22 0
-17 -18 0
-17 -19 0
-17 -20 0
-17 -21 0
-17 -22 0
-18 -19 0
-18 -20 0
-18 -21 0
-18 -22 0
-19 -20 0
-19 -21 0
-19 -22 0
-20 -21 0
-20 -22 0
-21 -22 0
-23 -24 0
-23 -25 0
-23 -26 0
-23 -27 0
-23 -28 0
-23 -29 0
-23 -30 0
-23 -31 0
-23 -32 0
-23 -33 0
-24 -25 0
-24 -26 0
-24 -27 0
-24 -28 0
-24 -29 0
-24 -30 0
-24 -31 0
-24 -32 0
-24 -33 0
-25 -26 0
-25 -27 0
-25 -28 0
-25 -29 0
-25 -30 0
-25 -31 0
-25 -32 0
-25 -33 0
-26 -27 0
-26 -28 0
-26 -29 0
-26 -30 0
-26 -31 0
-26 -32 0
-26 -33 0
-27 -28 0
-27 -29 0
-27 -30 0
-27 -31 0
-27 -32 0
-27 -33 0
-28 -29 0
-28 -30 0
-28 -31 0
-28 -32 0
-28 -33 0
-29 -30 0
-29 -31 0
-29 -32 0
-29 -33 0
-30 -31 0
-30 -32 0
-30 -33 0
-31 -32 0
-31 -33 0
-32 -33 0
-34 -35 0
-34 -36 0
-34 -37 0
-34 -38 0
-34 -39 0
-34 -40 0
-34 -41 0
-34 -42 0
-34 -43 0
-34 -44 0
-35 -36 0
-35 -37 0
-35 -38 0
-35 -39 0
-35 -40 0
-35 -41 0
-35 -42 0
-35 -43 0
-35 -44 0
-36 -37 0
-36 -38 0
-36 -39 0
-36 -40 0
-36 -41 0
-36 -42 0
-36 -43 0
-36 -44 0
-37 -38 0
-37 -39 0
-37 -40 0
-37 -41 0
-37 -42 0
-37 -43 0
-37 -44 0
-38 -39 0
-38 -40 0
-38 -41 0
-38 -42 0
-38 -43 0
-38 -44 0
-39 -40 0
-39 -41 0
-39 -42 0
-39 -43 0
-39 -44 0
-40 -41 0
-40 -42 0
-40 -43 0
-40 -44 0
-41 -42 0
-41 -43 0
-41 -44 0
-42 -43 0
-42 -44 0
-43 -44 0
-45 -46 0
-45 -47 0
-45 -48 0
-45 -49 0
-45 -50 0
-45 -51 0
-45 -52 0
-45 -53 0
-45 -54 0
-45 -55 0
-46 -47 0
-46 -48 0
-46 -49 0
-46 -50 0
-46 -51 0
-46 -52 0
-46 -53 0
-46 -54 0
-46 -55 0
-47 -48 0
-47 -49 0
-47 -50 0
-47 -51 0
-47 -52 0
-47 -53 0
-47 -54 0
-47 -55 0
-48 -49 0
-48 -50 0
-48 -51 0
-48 -52 0
-48 -53 0
-48 -54 0
-48 -55 0
-49 -50 0
-49 -51 0
-49 -52 0
-49 -53 0
-49 -54 0
-49 -55 0
-50 -51 0
-50 -52 0
-50 -53 0
-50 -54 0
-50 -55 0
-51 -52 0
-51 -53 0
-51 -54 0
-51 -55 0
-52 -53 0
-52 -54 0
-52 -55 0
-53 -54 0
-53 -55 0
-54 -55 0
-56 -57 0
-56 -58 0
-56 -59 0
-56 -60 0
-56 -61 0
-56 -62 0
-56 -63 0
-56 -64 0
-56 -65 0
-56 -66 0
-57 -58 0
-57 -59 0
-57 -60 0
-57 -61 0
-57 -62 0
-57 -63 0
-57 -64 0
-57 -65 0
-57 -66 0
-58 -59 0
-58 -60 0
-58 -61 0
-58 -62 0
-58 -63 0
-58 -64 0
-58 -65 0
-58 -66 0
-59 -60 0
-59 -61 0
-59 -62 0
-59 -63 0
-59 -64 0
-59 -65 0
-59 -66 0
-60 -61 0
-60 -62 0
-60 -63 0
-60 -64 0
-60 -65 0
-60 -66 0
-61 -62 0
-61 -63 0
-61 -64 0
-61 -65 0
-61 -66 0
-62 -63 0
-62 -64 0
-62 -65 0
-62 -66 0
-63 -64 0
-63 -65 0
-63 -66 0
-64 -65 0
-64 -66 0
-65 -66 0
-67 -68 0
-67 -69 0
-67 -70 0
-67 -71 0
-67 -72 0
-67 -73 0
-67 -74 0
-67 -75 0
-67 -76 0
-67 -77 0
-68 -69 0
-68 -70 0
-68 -71 0
-68 -72 0
-68 -73 0
-68 -74 0
-68 -75 0
-68 -76 0
-68 -77 0
-69 -70 0
-69 -71 0
-69 -72 0
-69 -73 0
-69 -74 0
-69 -75 0
-69 -76 0
-69 -77 0
-70 -71 0
-70 -72 0
-70 -73 0
-70 -74 0
-70 -75 0
-70 -76 0
-70 -77 0
-71 -72 0
-71 -73 0
-71 -74 0
-71 -75 0
-71 -76 0
-71 -77 0
-72 -73 0
-72 -74 0
-72 -75 0
-72 -76 0
-72 -77 0
-73 -74 0
-73 -75 0
-73 -76 0
-73 -77 0
-74 -75 0
-74 -76 0
-74 -77 0
-75 -76 0
-75 -77 0
-76 -77 0
-78 -79 0
-78 -80 0
-78 -81 0
-78 -82 0
-78 -83 0
-78 -84 0
-78 -85 0
-78 -86 0
-78 -87 0
-78 -88 0
-79 -80 0
-79 -81 0
-79 -82 0
-79 -83 0
-79 -84 0
-79 -85 0
-79 -86 0
-79 -87 0
-79 -88 0
-80 -81 0
-80 -82 0
-80 -83 0
-80 -84 0
-80 -85 0
-80 -86 0
-80 -87 0
-80 -88 0
-81 -82 0
-81 -83 0
-81 -84 0
-81 -85 0
-81 -86 0
-81 -87 0
-81 -88 0
-82 -83 0
-82 -84 0
-82 -85 0
-82 -86 0
-82 -87 0
-82 -88 0
-83 -84 0
-83 -85 0
-83 -86 0
-83 -87 0
-83 -88 0
-84 -85 0
-84 -86 0
-84 -87 0
-84 -88 0
-85 -86 0
-85 -87 0
-85 -88 0
-86 -87 0
-86 -88 0
-87 -88 0
-89 -90 0
-89 -91 0
-89 -92 0
-89 -93 0
-89 -94 0
-89 -95 0
-89 -96 0
-89 -97 0
-89 -98 0
-89 -99 0
-90 -91 0
-90 -92 0
-90 -93 0
-90 -94 0
-90 -95 0
-90 -96 0
-90 -97 0
-90 -98 0
-90 -99 0
-91 -92 0
-91 -93 0
-91 -94 0
-91 -95 0
-91 -96 0
-91 -97 0
-91 -98 0
-91 -99 0
-92 -93 0
-92 -94 0
-92 -95 0
-92 -96 0
-92 -97 0
-92 -98 0
-92 -99 0
-93 -94 0
-93 -95 0
-93 -96 0
-93 -97 0
-93 -98 0
-93 -99 0
-94 -95 0
-94 -96 0
-94 -97 0
-94 -98 0
-94 -99 0
-95 -96 0
-95 -97 0
-95 -98 0
-95 -99 0
-96 -97 0
-96 -98 0
-96 -99 0
-97 -98 0
-97 -99 0
-98 -99 0
-100 -101 0
-100 -102 0
-100 -103 0
-100 -104 0
-100 -105 0
-100 -106 0
-100 -107 0
-100 -108 0
-100 -109 0
-100 -110 0
-101 -102 0
-101 -103 0
-101 -104 0
-101 -105 0
-101 -106 0
-101 -107 0
-101 -108 0
-101 -109 0
-101 -110 0
-102 -103 0
-102 -104 0
-102 -105 0
-102 -106 0
-102 -107 0
-102 -108 0
-102 -109 0
-102 -110 0
-103 -104 0
-103 -105 0
-103 -106 0
-103 -107 0
-103 -108 0
-103 -109 0
-103 -110 0
-104 -105 0
-104 -106 0
-104 -107 0
-104 -108 0
-104 -109 0
-104 -110 0
-105 -106 0
-105 -107 0
-105 -108 0
-105 -109 0
-105 -110 0
-106 -107 0
-106 -108 0
-106 -109 0
-106 -110 0
-107 -108 0
-107 -109 0
-107 -110 0
-108 -109 0
-108 -110 0
-109 -110 0
-111 -112 0
-111 -113 0
-111 -114 0
-111 -115 0
-111 -116 0
-111 -117 0
-111 -118 0
-111 -119 0
-111 -120 0
-111 -121 0
-112 -113 0
-112 -114 0
-112 -115 0
-112 -116 0
-112 -117 0
-112 -118 0
-112 -119 0
-112 -120 0
-112 -121 0
-113 -114 0
-113 -115 0
-113 -116 0
-113 -117 0
-113 -118 0
-113 -119 0
-113 -120 0
-113 -121 0
-114 -115 0
-114 -116 0
-114 -117 0
-114 -118 0
-114 -119 0
-114 -120 0
-114 -121 0
-115 -116 0
-115 -117 0
-115 -118 0
-115 -119 0
-115 -120 0
-115 -121 0
-116 -117 0
-116 -118 0
-116 -119 0
-116 -120 0
-116 -121 0
-117 -118 0
-117 -119 0
-117 -120 0
-117 -121 0
-118 -119 0
-118 -120 0
-118 -121 0
-119 -120 0
-119 -121 0
-120 -121 0
-122 -123 0
-122 -124 0
-122 -125 0
-122 -126 0
-122 -127 0
-122 -128 0
-122 -129 0
-122 -130 0
-122 -131 0
-122 -132 0
-123 -124 0
-123 -125 0
-123 -126 0
-123 -127 0
-123 -128 0
-123 -129 0
-123 -130 0
-123 -131 0
-123 -132 0
-124 -125 0
-124 -126 0
-124 -127 0
-124 -128 0
-124 -129 0
-124 -130 0
-124 -131 0
-124 -132 0
-125 -126 0
-125 -127 0
-125 -128 0
-125 -129 0
-125 -130 0
-125 -131 0
-125 -132 0
-126 -127 0
-126 -128 0
-126 -129 0
-126 -130 0
-126 -131 0
-126 -132 0
-127 -128 0
-127 -129 0
-127 -130 0
-127 -131 0
-127 -132 0
-128 -129 0
-128 -130 0
-128 -131 0
-128 -132 0
-129 -130 0
-129 -131 0
-129 -132 0
-130 -131 0
-130 -132 0
-131 -132 0
-133 -134 0
-133 -135 0
-133 -136 0
-133 -137 0
-133 -138 0
-133 -139 0
-133 -140 0
-133 -141 0
-133 -142 0
-133 -143 0
-134 -135 0
-134 -136 0
-134 -137 0
-134 -138 0
-134 -139 0
-134 -140 0
-134 -141 0
-134 -142 0
-134 -143 0
-135 -136 0
-135 -137 0
-135 -138 0
-135 -139 0
-135 -140 0
-135 -141 0
-135 -142 0
-135 -143 0
-136 -137 0
-136 -138 0
-136 -139 0
-136 -140 0
-136 -141 0
-136 -142 0
-136 -143 0
-137 -138 0
-137 -139 0
-137 -140 0
-137 -141 0
-137 -142 0
-137 -143 0
-138 -139 0
-138 -140 0
-138 -141 0
-138 -142 0
-138 -143 0
-139 -140 0
-139 -141 0
-139 -142 0
-139 -143 0
-140 -141 0
-140 -142 0
-140 -143 0
-141 -142 0
-141 -143 0
-142 -143 0
-144 -145 0
-144 -146 0
-144 -147 0
-144 -148 0
-144 -149 0
-144 -150 0
-144 -151 0
-144 -152 0
-144 -153 0
-144 -154 0
-145 -146 0
-145 -147 0
-145 -148 0
-145 -149 0
-145 -150 0
-145 -151 0
-145 -152 0
-145 -153 0
-145 -154 0
-146 -147 0
-146 -148 0
-146 -149 0
-146 -150 0
-146 -151 0
-146 -152 0
-146 -153 0
-146 -154 0
-147 -148 0
-147 -149 0
-147 -150 0
-147 -151 0
-147 -152 0
-147 -153 0
-147 -154 0
-148 -149 0
-148 -150 0
-148 -151 0
-148 -152 0
-148 -153 0
-148 -154 0
-149 -150 0
-149 -151 0
-149 -152 0
-149 -153 0
-149 -154 0
-150 -151 0
-150 -152 0
-150 -153 0
-150 -154 0
-151 -152 0
-151 -153 0
-151 -154 0
-152 -153 0
-152 -154 0
-153 -154 0
-155 -156 0
-155 -157 0
-155 -158 0
-155 -159 0
-155 -160 0
-155 -161 0
-155 -162 0
-155 -163 0
-155 -164 0
-155 -165 0
-156 -157 0
-156 -158 0
-156 -159 0
-156 -160 0
-156 -161 0
-156 -162 0
-156 -163 0
-156 -164 0
-156 -165 0
-157 -158 0
-157 -159 0
-157 -160 0
-157 -161 0
-157 -162 0
-157 -163 0
-157 -164 0
-157 -165 0
-158 -159 0
-158 -160 0
-158 -161 0
-158 -162 0
-158 -163 0
-158 -164 0
-158 -165 0
-159 -160 0
-159 -161 0
-159 -162 0
-159 -163 0
-159 -164 0
-159 -165 0
-160 -161 0
-160 -162 0
-160 -163 0
-160 -164 0
-160 -165 0
-161 -162 0
-161 -163 0
-161 -164 0
-161 -165 0
-162 -163 0
-162 -164 0
-162 -165 0
-163 -164 0
-163 -165 0
-164 -165 0
-166 -167 0
-166 -168 0
-166 -169 0
-166 -170 0
-166 -171 0
-166 -172 0
-166 -173 0
-166 -174 0
-166 -175 0
-166 -176 0
-167 -168 0
-167 -169 0
-167 -170 0
-167 -171 0
-167 -172 0
-167 -173 0
-167 -174 0
-167 -175 0
-167 -176 0
-168 -169 0
-168 -170 0
-168 -171 0
-168 -172 0
-168 -173 0
-168 -174 0
-168 -175 0
-168 -176 0
-169 -170 0
-169 -171 0
-169 -172 0
-169 -173 0
-169 -174 0
-169 -175 0
-169 -176 0
-170 -171 0
-170 -172 0
-170 -173 0
-170 -174 0
-170 -175 0
-170 -176 0
-171 -172 0
-171 -173 0
-171 -174 0
-171 -175 0
-171 -176 0
-172 -173 0
-172 -174 0
-172 -175 0
-172 -176 0
-173 -174 0
-173 -175 0
-173 -176 0
-174 -175 0
-174 -176 0
-175 -176 0
-177 -178 0
-177 -179 0
-177 -180 0
-177 -181 0
-177 -182 0
-177 -183 0
-177 -184 0
-177 -185 0
-177 -186 0
-177 -187 0
-178 -179 0
-178 -180 0
-178 -181 0
-178 -182 0
-178 -183 0
-178 -184 0
-178 -185 0
-178 -186 0
-178 -187 0
-179 -180 0
-179 -181 0
-179 -182 0
-179 -183 0
-179 -184 0
-179 -185 0
-179 -186 0
-179 -187 0
-180 -181 0
-180 -182 0
-180 -183 0
-180 -184 0
-180 -185 0
-180 -186 0
-180 -187 0
-181 -182 0
-181 -183 0
-181 -184 0
-181 -185 0
-181 -186 0
-181 -187 0
-182 -183 0
-182 -184 0
-182 -185 0
-182 -186 0
-182 -187 0
-183 -184 0
-183 -185 0
-183 -186 0
-183 -187 0
-184 -185 0
-184 -186 0
-184 -187 0
-185 -186 0
-185 -187 0
-186 -187 0
-188 -189 0
-188 -190 0
-188 -191 0
-188 -192 0
-188 -193 0
-188 -194 0
-188 -195 0
-188 -196 0
-188 -197 0
-188 -198 0
-189 -190 0
-189 -191 0
-189 -192 0
-189 -193 0
-189 -194 0
-189 -195 0
-189 -196 0
-189 -197 0
-189 -198 0
-190 -191 0
-190 -192 0
-190 -193 0
-190 -194 0
-190 -195 0
-190 -196 0
-190 -197 0
-190 -198 0
-191 -192 0
-191 -193 0
-191 -194 0
-191 -195 0
-191 -196 0
-191 -197 0
-191 -198 0
-192 -193 0
-192 -194 0
-192 -195 0
-192 -196 0
-192 -197 0
-192 -198 0
-193 -194 0
-193 -195 0
-193 -196 0
-193 -197 0
-193 -198 0
-194 -195 0
-194 -196 0
-194 -197 0
-194 -198 0
-195 -196 0
-195 -197 0
-195 -198 0
-196 -197 0
-196 -198 0
-197 -198 0
-199 -200 0
-199 -201 0
-199 -202 0
-199 -203 0
-199 -204 0
-199 -205 0
-199 -206 0
-199 -207 0
-199 -208 0
-199 -209 0
-200 -201 0
-200 -202 0
-200 -203 0
-200 -204 0
-200 -205 0
-200 -206 0
-200 -207 0
-200 -208 0
-200 -209 0
-201 -202 0
-201 -203 0
-201 -204 0
-201 -205 0
-201 -206 0
-201 -207 0
-201 -208 0
-201 -209 0
-202 -203 0
-202 -204 0
-202 -205 0
-202 -206 0
-202 -207 0
-202 -208 0
-202 -209 0
-203 -204 0
-203 -205 0
-203 -206 0
-203 -207 0
-203 -208 0
-203 -209 0
-204 -205 0
-204 -206 0
-204 -207 0
-204 -208 0
-204 -209 0
-205 -206 0
-205 -207 0
-205 -208 0
-205 -209 0
-206 -207 0
-206 -208 0
-206 -209 0
-207 -208 0
-207 -209 0
-208 -209 0
-210 -211 0
-210 -212 0
-210 -213 0
-210 -214 0
-210 -215 0
-210 -216 0
-210 -217 0
-210 -218 0
-210 -219 0
-210 -220 0
-211 -212 0
-211 -213 0
-211 -214 0
-211 -215 0
-211 -216 0
-211 -217 0
-211 -218 0
-211 -219 0
-211 -220 0
-212 -213 0
-212 -214 0
-212 -215 0
-212 -216 0
-212 -217 0
-212 -218 0
-212 -219 0
-212 -220 0
-213 -214 0
-213 -215 0
-213 -216 0
-213 -217 0
-213 -218 0
-213 -219 0
-213 -220 0
-214 -215 0
-214 -216 0
-214 -217 0
-214 -218 0
-214 -219 0
-214 -220 0
-215 -216 0
-215 -217 0
-215 -218 0
-215 -219 0
-215 -220 0
-216 -217 0
-216 -218 0
-216 -219 0
-216 -220 0
-217 -218 0
-217 -219 0
-217 -220 0
-218 -219 0
-218 -220 0
-219 -220 0
-221 -222 0
-221 -223 0
-221 -224 0
-221 -225 0
-221 -226 0
-221 -227 0
-221 -228 0
-221 -229 0
-221 -230 0
-221 -231 0
-222 -223 0
-222 -224 0
-222 -225 0
-222 -226 0
-222 -227 0
-222 -228 0
-222 -229 0
-222 -230 0
-222 -231 0
-223 -224 0
-223 -225 0
-223 -226 0
-223 -227 0
-223 -228 0
-223 -229 0
-223 -230 0
-223 -231 0
-224 -225 0
-224 -226 0
-224 -227 0
-224 -228 0
-224 -229 0
-224 -230 0
-224 -231 0
-225 -226 0
-225 -227 0
-225 -228 0
-225 -229 0
-225 -230 0
-225 -231 0
-226 -227 0
-226 -228 0
-226 -229 0
-226 -230 0
-226 -231 0
-227 -228 0
-227 -229 0
-227 -230 0
-227 -231 0
-228 -229 0
-228 -230 0
-228 -231 0
-229 -230 0
-229 -231 0
-230 -231 0
-232 -233 0
-232 -234 0
-232 -235 0
-232 -236 0
-232 -237 0
-232 -238 0
-232 -239 0
-232 -240 0
-232 -241 0
-232 -242 0
-233 -234 0
-233 -235 0
-233 -236 0
-233 -237 0
-233 -238 0
-233 -239 0
-233 -240 0
-233 -241 0
-233 -242 0
-234 -235 0
-234 -236 0
-234 -237 0
-234 -238 0
-234 -239 0
-234 -240 0
-234 -241 0
-234 -242 0
-235 -236 0
-235 -237 0
-235 -238 0
-235 -239 0
-235 -240 0
-235 -241 0
-235 -242 0
-236 -237 0
-236 -238 0
-236 -239 0
-236 -240 0
-236 -241 0
-236 -242 0
-237 -238 0
-237 -239 0
-237 -240 0
-237 -241 0
-237 -242 0
-238 -239 0
-238 -240 0
-238 -241 0
-238 -242 0
-239 -240 0
-239 -241 0
-239 -242 0
-240 -241 0
-240 -242 0
-241 -242 0
-243 -244 0
-243 -245 0
-243 -246 0
-243 -247 0
-243 -248 0
-243 -249 0
-243 -250 0
-243 -251 0
-243 -252 0
-243 -253 0
-244 -245 0
-244 -246 0
-244 -247 0
-244 -248 0
-244 -249 0
-244 -250 0
-244 -251 0
-244 -252 0
-244 -253 0
-245 -246 0
-245 -247 0
-245 -248 0
-245 -249 0
-245 -250 0
-245 -251 0
-245 -252 0
-245 -253 0
-246 -247 0
-246 -248 0
-246 -249 0
-246 -250 0
-246 -251 0
-246 -252 0
-246 -253 0
-247 -248 0
-247 -249 0
-247 -250 0
-247 -251 0
-247 -252 0
-247 -253 0
-248 -249 0
-248 -250 0
-248 -251 0
-248 -252 0
-248 -253 0
-249 -250 0
-249 -251 0
-249 -252 0
-249 -253 0
-250 -251 0
-250 -252 0
-250 -253 0
-251 -252 0
-251 -253 0
-252 -253 0
-254 -255 0
-254 -256 0
-254 -257 0
-254 -258 0
-254 -259 0
-254 -260 0
-254 -261 0
-254 -262 0
-254 -263 0
-254 -264 0
-255 -256 0
-255 -257 0
-255 -258 0
-255 -259 0
-255 -260 0
-255 -261 0
-255 -262 0
-255 -263 0
-255 -264 0
-256 -257 0
-256 -258 0
-256 -259 0
-256 -260 0
-256 -261 0
-256 -262 0
-256 -263 0
-256 -264 0
-257 -258 0
-257 -259 0
-257 -260 0
-257 -261 0
-257 -262 0
-257 -263 0
-257 -264 0
-258 -259 0
-258 -260 0
-258 -261 0
-258 -262 0
-258 -263 0
-258 -264 0
-259 -260 0
-259 -261 0
-259 -262 0
-259 -263 0
-259 -264 0
-260 -261 0
-260 -262 0
-260 -263 0
-260 -264 0
-261 -262 0
-261 -263 0
-261 -264 0
-262 -263 0
-262 -264 0
-263 -264 0
-265 -266 0
-265 -267 0
-265 -268 0
-265 -269 0
-265 -270 0
-265 -271 0
-265 -272 0
-265 -273 0
-265 -274 0
-265 -275 0
-266 -267 0
-266 -268 0
-266 -269 0
-266 -270 0
-266 -271 0
-266 -272 0
-266 -273 0
-266 -274 0
-266 -275 0
-267 -268 0
-267 -269 0
-267 -270 0
-267 -271 0
-267 -272 0
-267 -273 0
-267 -274 0
-267 -275 0
-268 -269 0
-268 -270 0
-268 -271 0
-268 -272 0
-268 -273 0
-268 -274 0
-268 -275 0
-269 -270 0
-269 -271 0
-269 -272 0
-269 -273 0
-269 -274 0
-269 -275 0
-270 -271 0
-270 -272 0
-270 -273 0
-270 -274 0
-270 -275 0
-271 -272 0
-271 -273 0
-271 -274 0
-271 -275 0
-272 -273 0
-272 -274 0
-272 -275 0
-273 -274 0
-273 -275 0
-274 -275 0
-1 -23 0
-2 -24 0
-3 -25 0
-4 -26 0
-5 -27 0
-6 -28 0
-7 -29 0
-8 -30 0
-9 -31 0
-10 -32 0
-11 -33 0
-1 -56 0
-2 -57 0
-3 -58 0
-4 -59 0
-5 -60 0
-6 -61 0
-7 -62 0
-8 -63 0
-9 -64 0
-10 -65 0
-11 -66 0
-1 -67 0
-2 -68 0
-3 -69 0
-4 -70 0
-5 -71 0
-6 -72 0
-7 -73 0
-8 -74 0
-9 -75 0
-10 -76 0
-11 -77 0
-1 -100 0
-2 -101 0
-3 -102 0
-4 -103 0
-5 -104 0
-6 -105 0
-7 -106 0
-8 -107 0
-9 -108 0
-10 -109 0
-11 -110 0
-1 -122 0
-2 -123 0
-3 -124 0
-4 -125 0
-5 -126 0
-6 -127 0
-7 -128 0
-8 -129 0
-9 -130 0
-10 -131 0
-11 -132 0
-1 -155 0
-2 -156 0
-3 -157 0
-4 -158 0
-5 -159 0
-6 -160 0
-7 -161 0
-8 -162 0
-9 -163 0
-10 -164 0
-11 -165 0
-1 -199 0
-2 -200 0
-3 -201 0
-4 -202 0
-5 -203 0
-6 -204 0
-7 -205 0
-8 -206 0
-9 -207 0
-10 -208 0
-11 -209 0
-1 -232 0
-2 -233 0
-3 -234 0
-4 -235 0
-5 -236 0
-6 -237 0
-7 -238 0
-8 -239 0
-9 -240 0
-10 -241 0
-11 -242 0
-1 -243 0
-2 -244 0
-3 -245 0
-4 -246 0
-5 -247 0
-6 -248 0
-7 -249 0
-8 -250 0
-9 -251 0
-10 -252 0
-11 -253 0
-1 -265 0
-2 -266 0
-3 -267 0
-4 -268 0
-5 -269 0
-6 -270 0
-7 -271 0
-8 -272 0
-9 -273 0
-10 -274 0
-11 -275 0
-12 -45 0
-13 -46 0
-14 -47 0
-15 -48 0
-16 -49 0
-17 -50 0
-18 -51 0
-19 -52 0
-20 -53 0
-21 -54 0
-22 -55 0
-12 -56 0
-13 -57 0
-14 -58 0
-15 -59 0
-16 -60 0
-17 -61 0
-18 -62 0
-19 -63 0
-20 -64 0
-21 -65 0
-22 -66 0
-12 -100 0
-13 -101 0
-14 -102 0
-15 -103 0
-16 -104 0
-17 -105 0
-18 -106 0
-19 -107 0
-20 -108 0
-21 -109 0
-22 -110 0
-12 -144 0
-13 -145 0
-14 -146 0
-15 -147 0
-16 -148 0
-17 -149 0
-18 -150 0
-19 -151 0
-20 -152 0
-21 -153 0
-22 -154 0
-12 -166 0
-13 -167 0
-14 -168 0
-15 -169 0
-16 -170 0
-17 -171 0
-18 -172 0
-19 -173 0
-20 -174 0
-21 -175 0
-22 -176 0
-12 -177 0
-13 -178 0
-14 -179 0
-15 -180 0
-16 -181 0
-17 -182 0
-18 -183 0
-19 -184 0
-20 -185 0
-21 -186 0
-22 -187 0
-12 -221 0
-13 -222 0
-14 -223 0
-15 -224 0
-16 -225 0
-17 -226 0
-18 -227 0
-19 -228 0
-20 -229 0
-21 -230 0
-22 -231 0
-12 -232 0
-13 -233 0
-14 -234 0
-15 -235 0
-16 -236 0
-17 -237 0
-18 -238 0
-19 -239 0
-20 -240 0
-21 -241 0
-22 -242 0
-12 -243 0
-13 -244 0
-14 -245 0
-15 -246 0
-16 -247 0
-17 -248 0
-18 -249 0
-19 -250 0
-20 -251 0
-21 -252 0
-22 -253 0
-12 -254 0
-13 -255 0
-14 -256 0
-15 -257 0
-16 -258 0
-17 -259 0
-18 -260 0
-19 -261 0
-20 -262 0
-21 -263 0
-22 -264 0
-12 -265 0
-13 -266 0
-14 -267 0
-15 -268 0
-16 -269 0
-17 -270 0
-18 -271 0
-19 -272 0
-20 -273 0
-21 -274 0
-22 -275 0
-23 -89 0
-24 -90 0
-25 -91 0
-26 -92 0
-27 -93 0
-28 -94 0
-29 -95 0
-30 -96 0
-31 -97 0
-32 -98 0
-33 -99 0
-23 -133 0
-24 -134 0
-25 -135 0
-26 -136 0
-27 -137 0
-28 -138 0
-29 -139 0
-30 -140 0
-31 -141 0
-32 -142 0
-33 -143 0
-23 -166 0
-24 -167 0
-25 -168 0
-26 -169 0
-27 -170 0
-28 -171 0
-29 -172 0
-30 -173 0
-31 -174 0
-32 -175 0
-33 -176 0
-23 -177 0
-24 -178 0
-25 -179 0
-26 -180 0
-27 -181 0
-28 -182 0
-29 -183 0
-30 -184 0
-31 -185 0
-32 -186 0
-33 -187 0
-23 -221 0
-24 -222 0
-25 -223 0
-26 -224 0
-27 -225 0
-28 -226 0
-29 -227 0
-30 -228 0
-31 -229 0
-32 -230 0
-33 -231 0
-34 -45 0
-35 -46 0
-36 -47 0
-37 -48 0
-38 -49 0
-39 -50 0
-40 -51 0
-41 -52 0
-42 -53 0
-43 -54 0
-44 -55 0
-34 -78 0
-35 -79 0
-36 -80 0
-37 -81 0
-38 -82 0
-39 -83 0
-40 -84 0
-41 -85 0
-42 -86 0
-43 -87 0
-44 -88 0
-34 -100 0
-35 -101 0
-36 -102 0
-37 -103 0
-38 -104 0
-39 -105 0
-40 -106 0
-41 -107 0
-42 -108 0
-43 -109 0
-44 -110 0
-34 -111 0
-35 -112 0
-36 -113 0
-37 -114 0
-38 -115 0
-39 -116 0
-40 -117 0
-41 -118 0
-42 -119 0
-43 -120 0
-44 -121 0
-34 -122 0
-35 -123 0
-36 -124 0
-37 -125 0
-38 -126 0
-39 -127 0
-40 -128 0
-41 -129 0
-42 -130 0
-43 -131 0
-44 -132 0
-34 -133 0
-35 -134 0
-36 -135 0
-37 -136 0
-38 -137 0
-39 -138 0
-40 -139 0
-41 -140 0
-42 -141 0
-43 -142 0
-44 -143 0
-34 -155 0
-35 -156 0
-36 -157 0
-37 -158 0
-38 -159 0
-39 -160 0
-40 -161 0
-41 -162 0
-42 -163 0
-43 -164 0
-44 -165 0
-34 -166 0
-35 -167 0
-36 -168 0
-37 -169 0
-38 -170 0
-39 -171 0
-40 -172 0
-41 -173 0
-42 -174 0
-43 -175 0
-44 -176 0
-34 -177 0
-35 -178 0
-36 -179 0
-37 -180 0
-38 -181 0
-39 -182 0
-40 -183 0
-41 -184 0
-42 -185 0
-43 -186 0
-44 -187 0
-34 -188 0
-35 -189 0
-36 -190 0
-37 -191 0
-38 -192 0
-39 -193 0
-40 -194 0
-41 -195 0
-42 -196 0
-43 -197 0
-44 -198 0
-34 -199 0
-35 -200 0
-36 -201 0
-37 -202 0
-38 -203 0
-39 -204 0
-40 -205 0
-41 -206 0
-42 -207 0
-43 -208 0
-44 -209 0
-34 -265 0
-35 -266 0
-36 -267 0
-37 -268 0
-38 -269 0
-39 -270 0
-40 -271 0
-41 -272 0
-42 -273 0
-43 -274 0
-44 -275 0
-45 -78 0
-46 -79 0
-47 -80 0
-48 -81 0
-49 -82 0
-50 -83 0
-51 -84 0
-52 -85 0
-53 -86 0
-54 -87 0
-55 -88 0
-45 -100 0
-46 -101 0
-47 -102 0
-48 -103 0
-49 -104 0
-50 -105 0
-51 -106 0
-52 -107 0
-53 -108 0
-54 -109 0
-55 -110 0
-45 -122 0
-46 -123 0
-47 -124 0
-48 -125 0
-49 -126 0
-50 -127 0
-51 -128 0
-52 -129 0
-53 -130 0
-54 -131 0
-55 -132 0
-45 -133 0
-46 -134 0
-47 -135 0
-48 -136 0
-49 -137 0
-50 -138 0
-51 -139 0
-52 -140 0
-53 -141 0
-54 -142 0
-55 -143 0
-45 -221 0
-46 -222 0
-47 -223 0
-48 -224 0
-49 -225 0
-50 -226 0
-51 -227 0
-52 -228 0
-53 -229 0
-54 -230 0
-55 -231 0
-45 -232 0
-46 -233 0
-47 -234 0
-48 -235 0
-49 -236 0
-50 -237 0
-51 -238 0
-52 -239 0
-53 -240 0
-54 -241 0
-55 -242 0
-45 -254 0
-46 -255 0
-47 -256 0
-48 -257 0
-49 -258 0
-50 -259 0
-51 -260 0
-52 -261 0
-53 -262 0
-54 -263 0
-55 -264 0
-56 -78 0
-57 -79 0
-58 -80 0
-59 -81 0
-60 -82 0
-61 -83 0
-62 -84 0
-63 -85 0
-64 -86 0
-65 -87 0
-66 -88 0
-56 -111 0
-57 -112 0
-58 -113 0
-59 -114 0
-60 -115 0
-61 -116 0
-62 -117 0
-63 -118 0
-64 -119 0
-65 -120 0
-66 -121 0
-56 -122 0
-57 -123 0
-58 -124 0
-59 -125 0
-60 -126 0
-61 -127 0
-62 -128 0
-63 -129 0
-64 -130 0
-65 -131 0
-66 -132 0
-56 -155 0
-57 -156 0
-58 -157 0
-59 -158 0
-60 -159 0
-61 -160 0
-62 -161 0
-63 -162 0
-64 -163 0
-65 -164 0
-66 -165 0
-56 -177 0
-57 -178 0
-58 -179 0
-59 -180 0
-60 -181 0
-61 -182 0
-62 -183 0
-63 -184 0
-64 -185 0
-65 -186 0
-66 -187 0
-56 -232 0
-57 -233 0
-58 -234 0
-59 -235 0
-60 -236 0
-61 -237 0
-62 -238 0
-63 -239 0
-64 -240 0
-65 -241 0
-66 -242 0
-56 -265 0
-57 -266 0
-58 -267 0
-59 -268 0
-60 -269 0
-61 -270 0
-62 -271 0
-63 -272 0
-64 -273 0
-65 -274 0
-66 -275 0
-67 -78 0
-68 -79 0
-69 -80 0
-70 -81 0
-71 -82 0
-72 -83 0
-73 -84 0
-74 -85 0
-75 -86 0
-76 -87 0
-77 -88 0
-67 -111 0
-68 -112 0
-69 -113 0
-70 -114 0
-71 -115 0
-72 -116 0
-73 -117 0
-74 -118 0
-75 -119 0
-76 -120 0
-77 -121 0
-67 -144 0
-68 -145 0
-69 -146 0
-70 -147 0
-71 -148 0
-72 -149 0
-73 -150 0
-74 -151 0
-75 -152 0
-76 -153 0
-77 -154 0
-67 -155 0
-68 -156 0
-69 -157 0
-70 -158 0
-71 -159 0
-72 -160 0
-73 -161 0
-74 -162 0
-75 -163 0
-76 -164 0
-77 -165 0
-67 -188 0
-68 -189 0
-69 -190 0
-70 -191 0
-71 -192 0
-72 -193 0
-73 -194 0
-74 -195 0
-75 -196 0
-76 -197 0
-77 -198 0
-67 -199 0
-68 -200 0
-69 -201 0
-70 -202 0
-71 -203 0
-72 -204 0
-73 -205 0
-74 -206 0
-75 -207 0
-76 -208 0
-77 -209 0
-67 -210 0
-68 -211 0
-69 -212 0
-70 -213 0
-71 -214 0
-72 -215 0
-73 -216 0
-74 -217 0
-75 -218 0
-76 -219 0
-77 -220 0
-67 -254 0
-68 -255 0
-69 -256 0
-70 -257 0
-71 -258 0
-72 -259 0
-73 -260 0
-74 -261 0
-75 -262 0
-76 -263 0
-77 -264 0
-78 -100 0
-79 -101 0
-80 -102 0
-81 -103 0
-82 -104 0
-83 -105 0
-84 -106 0
-85 -107 0
-86 -108 0
-87 -109 0
-88 -110 0
-78 -122 0
-79 -123 0
-80 -124 0
-81 -125 0
-82 -126 0
-83 -127 0
-84 -128 0
-85 -129 0
-86 -130 0
-87 -131 0
-88 -132 0
-78 -166 0
-79 -167 0
-80 -168 0
-81 -169 0
-82 -170 0
-83 -171 0
-84 -172 0
-85 -173 0
-86 -174 0
-87 -175 0
-88 -176 0
-89 -111 0
-90 -112 0
-91 -113 0
-92 -114 0
-93 -115 0
-94 -116 0
-95 -117 0
-96 -118 0
-97 -119 0
-98 -120 0
-99 -121 0
-89 -210 0
-90 -211 0
-91 -212 0
-92 -213 0
-93 -214 0
-94 -215 0
-95 -216 0
-96 -217 0
-97 -218 0
-98 -219 0
-99 -220 0
-89 -232 0
-90 -233 0
-91 -234 0
-92 -235 0
-93 -236 0
-94 -237 0
-95 -238 0
-96 -239 0
-97 -240 0
-98 -241 0
-99 -242 0
-100 -111 0
-101 -112 0
-102 -113 0
-103 -114 0
-104 -115 0
-105 -116 0
-106 -117 0
-107 -118 0
-108 -119 0
-109 -120 0
-110 -121 0
-100 -199 0
-101 -200 0
-102 -201 0
-103 -202 0
-104 -203 0
-105 -204 0
-106 -205 0
-107 -206 0
-108 -207 0
-109 -208 0
-110 -209 0
-100 -265 0
-101 -266 0
-102 -267 0
-103 -268 0
-104 -269 0
-105 -270 0
-106 -271 0
-107 -272 0
-108 -273 0
-109 -274 0
-110 -275 0
-111 -133 0
-112 -134 0
-113 -135 0
-114 -136 0
-115 -137 0
-116 -138 0
-117 -139 0
-118 -140 0
-119 -141 0
-120 -142 0
-121 -143 0
-111 -144 0
-112 -145 0
-113 -146 0
-114 -147 0
-115 -148 0
-116 -149 0
-117 -150 0
-118 -151 0
-119 -152 0
-120 -153 0
-121 -154 0
-111 -188 0
-112 -189 0
-113 -190 0
-114 -191 0
-115 -192 0
-116 -193 0
-117 -194 0
-118 -195 0
-119 -196 0
-120 -197 0
-121 -198 0
-111 -199 0
-112 -200 0
-113 -201 0
-114 -202 0
-115 -203 0
-116 -204 0
-117 -205 0
-118 -206 0
-119 -207 0
-120 -208 0
-121 -209 0
-111 -243 0
-112 -244 0
-113 -245 0
-114 -246 0
-115 -247 0
-116 -248 0
-117 -249 0
-118 -250 0
-119 -251 0
-120 -252 0
-121 -253 0
-122 -155 0
-123 -156 0
-124 -157 0
-125 -158 0
-126 -159 0
-127 -160 0
-128 -161 0
-129 -162 0
-130 -163 0
-131 -164 0
-132 -165 0
-122 -210 0
-123 -211 0
-124 -212 0
-125 -213 0
-126 -214 0
-127 -215 0
-128 -216 0
-129 -217 0
-130 -218 0
-131 -219 0
-132 -220 0
-122 -232 0
-123 -233 0
-124 -234 0
-125 -235 0
-126 -236 0
-127 -237 0
-128 -238 0
-129 -239 0
-130 -240 0
-131 -241 0
-132 -242 0
-122 -243 0
-123 -244 0
-124 -245 0
-125 -246 0
-126 -247 0
-127 -248 0
-128 -249 0
-129 -250 0
-130 -251 0
-131 -252 0
-132 -253 0
-122 -265 0
-123 -266 0
-124 -267 0
-125 -268 0
-126 -269 0
-127 -270 0
-128 -271 0
-129 -272 0
-130 -273 0
-131 -274 0
-132 -275 0
-133 -144 0
-134 -145 0
-135 -146 0
-136 -147 0
-137 -148 0
-138 -149 0
-139 -150 0
-140 -151 0
-141 -152 0
-142 -153 0
-143 -154 0
-133 -155 0
-134 -156 0
-135 -157 0
-136 -158 0
-137 -159 0
-138 -160 0
-139 -161 0
-140 -162 0
-141 -163 0
-142 -164 0
-143 -165 0
-133 -188 0
-134 -189 0
-135 -190 0
-136 -191 0
-137 -192 0
-138 -193 0
-139 -194 0
-140 -195 0
-141 -196 0
-142 -197 0
-143 -198 0
-133 -210 0
-134 -211 0
-135 -212 0
-136 -213 0
-137 -214 0
-138 -215 0
-139 -216 0
-140 -217 0
-141 -218 0
-142 -219 0
-143 -220 0
-133 -221 0
-134 -222 0
-135 -223 0
-136 -224 0
-137 -225 0
-138 -226 0
-139 -227 0
-140 -228 0
-141 -229 0
-142 -230 0
-143 -231 0
-133 -254 0
-134 -255 0
-135 -256 0
-136 -257 0
-137 -258 0
-138 -259 0
-139 -260 0
-140 -261 0
-141 -262 0
-142 -263 0
-143 -264 0
-133 -265 0
-134 -266 0
-135 -267 0
-136 -268 0
-137 -269 0
-138 -270 0
-139 -271 0
-140 -272 0
-141 -273 0
-142 -274 0
-143 -275 0
-144 -166 0
-145 -167 0
-146 -168 0
-147 -169 0
-148 -170 0
-149 -171 0
-150 -172 0
-151 -173 0
-152 -174 0
-153 -175 0
-154 -176 0
-144 -199 0
-145 -200 0
-146 -201 0
-147 -202 0
-148 -203 0
-149 -204 0
-150 -205 0
-151 -206 0
-152 -207 0
-153 -208 0
-154 -209 0
-144 -210 0
-145 -211 0
-146 -212 0
-147 -213 0
-148 -214 0
-149 -215 0
-150 -216 0
-151 -217 0
-152 -218 0
-153 -219 0
-154 -220 0
-155 -210 0
-156 -211 0
-157 -212 0
-158 -213 0
-159 -214 0
-160 -215 0
-161 -216 0
-162 -217 0
-163 -218 0
-164 -219 0
-165 -220 0
-155 -232 0
-156 -233 0
-157 -234 0
-158 -235 0
-159 -236 0
-160 -237 0
-161 -238 0
-162 -239 0
-163 -240 0
-164 -241 0
-165 -242 0
-155 -243 0
-156 -244 0
-157 -245 0
-158 -246 0
-159 -247 0
-160 -248 0
-161 -249 0
-162 -250 0
-163 -251 0
-164 -252 0
-165 -253 0
-166 -243 0
-167 -244 0
-168 -245 0
-169 -246 0
-170 -247 0
-171 -248 0
-172 -249 0
-173 -250 0
-174 -251 0
-175 -252 0
-176 -253 0
-177 -199 0
-178 -200 0
-179 -201 0
-180 -202 0
-181 -203 0
-182 -204 0
-183 -205 0
-184 -206 0
-185 -207 0
-186 -208 0
-187 -209 0
-177 -232 0
-178 -233 0
-179 -234 0
-180 -235 0
-181 -236 0
-182 -237 0
-183 -238 0
-184 -239 0
-185 -240 0
-186 -241 0
-187 -242 0
-177 -265 0
-178 -266 0
-179 -267 0
-180 -268 0
-181 -269 0
-182 -270 0
-183 -271 0
-184 -272 0
-185 -273 0
-186 -274 0
-187 -275 0
-188 -232 0
-189 -233 0
-190 -234 0
-191 -235 0
-192 -236 0
-193 -237 0
-194 -238 0
-195 -239 0
-196 -240 0
-197 -241 0
-198 -242 0
-188 -243 0
-189 -244 0
-190 -245 0
-191 -246 0
-192 -247 0
-193 -248 0
-194 -249 0
-195 -250 0
-196 -251 0
-197 -252 0
-198 -253 0
-199 -210 0
-200 -211 0
-201 -212 0
-202 -213 0
-203 -214 0
-204 -215 0
-205 -216 0
-206 -217 0
-207 -218 0
-208 -219 0
-209 -220 0
-199 -221 0
-200 -222 0
-201 -223 0
-202 -224 0
-203 -225 0
-204 -226 0
-205 -227 0
-206 -228 0
-207 -229 0
-208 -230 0
-209 -231 0
-199 -232 0
-200 -233 0
-201 -234 0
-202 -235 0
-203 -236 0
-204 -237 0
-205 -238 0
-206 -239 0
-207 -240 0
-208 -241 0
-209 -242 0
-210 -232 0
-211 -233 0
-212 -234 0
-213 -235 0
-214 -236 0
-215 -237 0
-216 -238 0
-217 -239 0
-218 -240 0
-219 -241 0
-220 -242 0
-221 -243 0
-222 -244 0
-223 -245 0
-224 -246 0
-225 -247 0
-226 -248 0
-227 -249 0
-228 -250 0
-229 -251 0
-230 -252 0
-231 -253 0
-221 -265 0
-222 -266 0
-223 -267 0
-224 -268 0
-225 -269 0
-226 -270 0
-227 -271 0
-228 -272 0
-229 -273 0
-230 -274 0
-231 -275 0
-254 -265 0
-255 -266 0
-256 -267 0
-257 -268 0
-258 -269 0
-259 -270 0
-260 -271 0
-261 -272 0
-262 -273 0
-263 -274 0
-264 -275 0
